
Gurobi 9.5.2 (win64) logging started Tue Oct 31 16:30:20 2023

Set parameter LogFile to value "./ccga_results/2023-10-31 16-30-18-305/MSP_TimeStampConvert_gurobi_log.txt"
Set parameter TimeLimit to value 7200

Gurobi 9.5.2 (win64) logging started Tue Oct 31 16:30:20 2023

Set parameter LogFile to value "./ccga_results/2023-10-31 16-30-18-305/MSP_TimeStampConvert_gurobi_log.txt"
Set parameter TimeLimit to value 7200
Gurobi Optimizer version 9.5.2 build v9.5.2rc0 (win64)
Thread count: 10 physical cores, 20 logical processors, using up to 20 threads
Optimize a model with 1752 rows, 1321 columns and 4350 nonzeros
Model fingerprint: 0x61917b67
Variable types: 25 continuous, 1296 integer (1296 binary)
Coefficient statistics:
  Matrix range     [1e+00, 1e+00]
  Objective range  [1e+00, 1e+00]
  Bounds range     [1e+03, 1e+03]
  RHS range        [1e+00, 1e+00]
Found heuristic solution: objective 24000.000000

Explored 0 nodes (0 simplex iterations) in 0.00 seconds (0.00 work units)
Thread count was 1 (of 20 available processors)

Solution count 1: 24000 

Optimal solution found (tolerance 5.00e-02)
Best objective 2.400000000000e+04, best bound 2.400000000000e+04, gap 0.0000%

User-callback calls 21, time in user-callback 0.00 sec
Set parameter TimeLimit to value 7199
Gurobi Optimizer version 9.5.2 build v9.5.2rc0 (win64)
Thread count: 10 physical cores, 20 logical processors, using up to 20 threads
Optimize a model with 5581 rows, 2401 columns and 17303 nonzeros
Model fingerprint: 0x2bd3975b
Variable types: 1057 continuous, 1344 integer (1344 binary)
Coefficient statistics:
  Matrix range     [5e-03, 8e+02]
  Objective range  [1e+00, 1e+00]
  Bounds range     [1e+03, 1e+03]
  RHS range        [1e+00, 1e+08]

MIP start from previous solve did not produce a new incumbent solution

Presolve removed 478 rows and 156 columns
Presolve time: 0.06s
Presolved: 5103 rows, 2245 columns, 16071 nonzeros
Variable types: 985 continuous, 1260 integer (1260 binary)
Found heuristic solution: objective 22366.932392
Found heuristic solution: objective 24000.000000

Explored 0 nodes (0 simplex iterations) in 0.08 seconds (0.11 work units)
Thread count was 20 (of 20 available processors)

Solution count 2: 24000 22366.9 

Optimal solution found (tolerance 5.00e-02)
Best objective 2.400000000000e+04, best bound 2.400000000000e+04, gap 0.0000%

User-callback calls 459, time in user-callback 0.00 sec
Gurobi Optimizer version 9.5.2 build v9.5.2rc0 (win64)
Thread count: 10 physical cores, 20 logical processors, using up to 20 threads
Optimize a model with 9410 rows, 3481 columns and 30256 nonzeros
Model fingerprint: 0xc57d41f4
Variable types: 2089 continuous, 1392 integer (1392 binary)
Coefficient statistics:
  Matrix range     [5e-03, 8e+02]
  Objective range  [1e+00, 1e+00]
  Bounds range     [1e+03, 1e+03]
  RHS range        [1e+00, 1e+08]

MIP start from previous solve produced solution with objective 23446 (0.03s)
Loaded MIP start from previous solve with objective 23446


Explored 0 nodes (0 simplex iterations) in 0.03 seconds (0.05 work units)
Thread count was 1 (of 20 available processors)

Solution count 1: 23446 

Optimal solution found (tolerance 5.00e-02)
Best objective 2.344597819267e+04, best bound 2.400000000000e+04, gap 2.3630%

User-callback calls 36, time in user-callback 0.00 sec
Gurobi Optimizer version 9.5.2 build v9.5.2rc0 (win64)
Thread count: 10 physical cores, 20 logical processors, using up to 20 threads
Optimize a model with 13239 rows, 4561 columns and 43209 nonzeros
Model fingerprint: 0x8ae3ffab
Variable types: 3121 continuous, 1440 integer (1440 binary)
Coefficient statistics:
  Matrix range     [5e-03, 8e+02]
  Objective range  [1e+00, 1e+00]
  Bounds range     [1e+03, 1e+03]
  RHS range        [1e+00, 1e+08]

MIP start from previous solve produced solution with objective 22912.9 (0.04s)
Loaded MIP start from previous solve with objective 22912.9


Explored 0 nodes (0 simplex iterations) in 0.04 seconds (0.07 work units)
Thread count was 1 (of 20 available processors)

Solution count 1: 22912.9 

Optimal solution found (tolerance 5.00e-02)
Best objective 2.291290455712e+04, best bound 2.400000000000e+04, gap 4.7445%

User-callback calls 42, time in user-callback 0.00 sec
Gurobi Optimizer version 9.5.2 build v9.5.2rc0 (win64)
Thread count: 10 physical cores, 20 logical processors, using up to 20 threads
Optimize a model with 17068 rows, 5641 columns and 56162 nonzeros
Model fingerprint: 0x431e2822
Variable types: 4153 continuous, 1488 integer (1488 binary)
Coefficient statistics:
  Matrix range     [5e-03, 8e+02]
  Objective range  [1e+00, 1e+00]
  Bounds range     [1e+03, 1e+03]
  RHS range        [1e+00, 1e+08]

MIP start from previous solve produced solution with objective 22400 (0.06s)
Loaded MIP start from previous solve with objective 22400

Presolve removed 1620 rows and 509 columns
Presolve time: 0.17s
Presolved: 15448 rows, 5132 columns, 50405 nonzeros
Variable types: 3869 continuous, 1263 integer (1260 binary)

Root relaxation: objective 2.400000e+04, 3506 iterations, 0.08 seconds (0.10 work units)

    Nodes    |    Current Node    |     Objective Bounds      |     Work
 Expl Unexpl |  Obj  Depth IntInf | Incumbent    BestBd   Gap | It/Node Time

*    0     0               0    24000.000000 24000.0000  0.00%     -    0s

Explored 1 nodes (8524 simplex iterations) in 0.43 seconds (0.62 work units)
Thread count was 20 (of 20 available processors)

Solution count 2: 24000 22400 

Optimal solution found (tolerance 5.00e-02)
Best objective 2.400000000000e+04, best bound 2.400000000000e+04, gap 0.0000%

User-callback calls 518, time in user-callback 0.00 sec
Set parameter TimeLimit to value 7198
Gurobi Optimizer version 9.5.2 build v9.5.2rc0 (win64)
Thread count: 10 physical cores, 20 logical processors, using up to 20 threads
Optimize a model with 20897 rows, 6721 columns and 69115 nonzeros
Model fingerprint: 0xccab35e7
Variable types: 5185 continuous, 1536 integer (1536 binary)
Coefficient statistics:
  Matrix range     [5e-03, 8e+02]
  Objective range  [1e+00, 1e+00]
  Bounds range     [1e+03, 1e+03]
  RHS range        [1e+00, 1e+08]

MIP start from previous solve did not produce a new incumbent solution

Presolve removed 2000 rows and 626 columns
Presolve time: 0.21s
Presolved: 18897 rows, 6095 columns, 61851 nonzeros
Variable types: 4832 continuous, 1263 integer (1260 binary)

Root relaxation: objective 2.400000e+04, 7137 iterations, 0.33 seconds (0.39 work units)

    Nodes    |    Current Node    |     Objective Bounds      |     Work
 Expl Unexpl |  Obj  Depth IntInf | Incumbent    BestBd   Gap | It/Node Time

     0     0 24000.0000    0    9          - 24000.0000      -     -    0s
H    0     0                    23991.111111 24000.0000  0.04%     -    0s

Explored 1 nodes (13372 simplex iterations) in 0.83 seconds (1.11 work units)
Thread count was 20 (of 20 available processors)

Solution count 1: 23991.1 

Optimal solution found (tolerance 5.00e-02)
Best objective 2.399111111111e+04, best bound 2.400000000000e+04, gap 0.0371%

User-callback calls 554, time in user-callback 0.00 sec
Set parameter TimeLimit to value 7197
Gurobi Optimizer version 9.5.2 build v9.5.2rc0 (win64)
Thread count: 10 physical cores, 20 logical processors, using up to 20 threads
Optimize a model with 24726 rows, 7801 columns and 82068 nonzeros
Model fingerprint: 0x82c571fd
Variable types: 6217 continuous, 1584 integer (1584 binary)
Coefficient statistics:
  Matrix range     [5e-03, 8e+02]
  Objective range  [1e+00, 1e+00]
  Bounds range     [1e+03, 1e+03]
  RHS range        [1e+00, 1e+08]

MIP start from previous solve did not produce a new incumbent solution

Presolve removed 2383 rows and 746 columns
Presolve time: 0.25s
Presolved: 22343 rows, 7055 columns, 73303 nonzeros
Variable types: 5792 continuous, 1263 integer (1260 binary)

Root relaxation: objective 2.400000e+04, 8471 iterations, 0.33 seconds (0.38 work units)

    Nodes    |    Current Node    |     Objective Bounds      |     Work
 Expl Unexpl |  Obj  Depth IntInf | Incumbent    BestBd   Gap | It/Node Time

     0     0 24000.0000    0   24          - 24000.0000      -     -    1s
H    0     0                    23851.111111 24000.0000  0.62%     -    1s

Explored 1 nodes (19438 simplex iterations) in 1.16 seconds (1.71 work units)
Thread count was 20 (of 20 available processors)

Solution count 1: 23851.1 

Optimal solution found (tolerance 5.00e-02)
Best objective 2.385111111111e+04, best bound 2.400000000000e+04, gap 0.6242%

User-callback calls 568, time in user-callback 0.00 sec
Set parameter TimeLimit to value 7195
Gurobi Optimizer version 9.5.2 build v9.5.2rc0 (win64)
Thread count: 10 physical cores, 20 logical processors, using up to 20 threads
Optimize a model with 28555 rows, 8881 columns and 95021 nonzeros
Model fingerprint: 0x0fb235fd
Variable types: 7249 continuous, 1632 integer (1632 binary)
Coefficient statistics:
  Matrix range     [5e-03, 8e+02]
  Objective range  [1e+00, 1e+00]
  Bounds range     [1e+03, 1e+03]
  RHS range        [1e+00, 1e+08]

MIP start from previous solve did not produce a new incumbent solution

Presolve removed 2765 rows and 865 columns
Presolve time: 0.29s
Presolved: 25790 rows, 8016 columns, 84736 nonzeros
Variable types: 6753 continuous, 1263 integer (1260 binary)

Root relaxation: objective 2.400000e+04, 12140 iterations, 0.68 seconds (1.02 work units)

    Nodes    |    Current Node    |     Objective Bounds      |     Work
 Expl Unexpl |  Obj  Depth IntInf | Incumbent    BestBd   Gap | It/Node Time

     0     0 24000.0000    0    3          - 24000.0000      -     -    1s
H    0     0                    23951.111111 24000.0000  0.20%     -    1s

Explored 1 nodes (21291 simplex iterations) in 1.59 seconds (2.40 work units)
Thread count was 20 (of 20 available processors)

Solution count 1: 23951.1 

Optimal solution found (tolerance 5.00e-02)
Best objective 2.395111111111e+04, best bound 2.400000000000e+04, gap 0.2041%

User-callback calls 610, time in user-callback 0.00 sec
Set parameter TimeLimit to value 7193
Gurobi Optimizer version 9.5.2 build v9.5.2rc0 (win64)
Thread count: 10 physical cores, 20 logical processors, using up to 20 threads
Optimize a model with 32384 rows, 9961 columns and 107974 nonzeros
Model fingerprint: 0xdd3c5778
Variable types: 8281 continuous, 1680 integer (1680 binary)
Coefficient statistics:
  Matrix range     [5e-03, 8e+02]
  Objective range  [1e+00, 1e+00]
  Bounds range     [1e+03, 1e+03]
  RHS range        [1e+00, 1e+08]

MIP start from previous solve did not produce a new incumbent solution

Presolve removed 3148 rows and 985 columns
Presolve time: 0.33s
Presolved: 29236 rows, 8976 columns, 96185 nonzeros
Variable types: 7713 continuous, 1263 integer (1260 binary)

Root relaxation: objective 2.400000e+04, 14629 iterations, 1.08 seconds (1.62 work units)

    Nodes    |    Current Node    |     Objective Bounds      |     Work
 Expl Unexpl |  Obj  Depth IntInf | Incumbent    BestBd   Gap | It/Node Time

     0     0 24000.0000    0   16          - 24000.0000      -     -    4s
H    0     0                    23771.111111 24000.0000  0.96%     -    4s

Explored 1 nodes (43896 simplex iterations) in 4.19 seconds (7.60 work units)
Thread count was 20 (of 20 available processors)

Solution count 1: 23771.1 

Optimal solution found (tolerance 5.00e-02)
Best objective 2.377111111111e+04, best bound 2.400000000000e+04, gap 0.9629%

User-callback calls 630, time in user-callback 0.00 sec
Set parameter TimeLimit to value 7189
Gurobi Optimizer version 9.5.2 build v9.5.2rc0 (win64)
Thread count: 10 physical cores, 20 logical processors, using up to 20 threads
Optimize a model with 36213 rows, 11041 columns and 120927 nonzeros
Model fingerprint: 0x5b8339bc
Variable types: 9313 continuous, 1728 integer (1728 binary)
Coefficient statistics:
  Matrix range     [5e-03, 8e+02]
  Objective range  [1e+00, 1e+00]
  Bounds range     [1e+03, 1e+03]
  RHS range        [1e+00, 1e+08]

MIP start from previous solve did not produce a new incumbent solution

Presolve removed 3527 rows and 1101 columns
Presolve time: 0.37s
Presolved: 32686 rows, 9940 columns, 107642 nonzeros
Variable types: 8677 continuous, 1263 integer (1260 binary)

Root relaxation: objective 2.400000e+04, 16179 iterations, 1.42 seconds (2.33 work units)

    Nodes    |    Current Node    |     Objective Bounds      |     Work
 Expl Unexpl |  Obj  Depth IntInf | Incumbent    BestBd   Gap | It/Node Time

     0     0 24000.0000    0   20          - 24000.0000      -     -    2s
H    0     0                    23736.111111 24000.0000  1.11%     -    2s

Explored 1 nodes (31162 simplex iterations) in 2.86 seconds (4.58 work units)
Thread count was 20 (of 20 available processors)

Solution count 1: 23736.1 

Optimal solution found (tolerance 5.00e-02)
Best objective 2.373611111111e+04, best bound 2.400000000000e+04, gap 1.1118%

User-callback calls 651, time in user-callback 0.00 sec
Set parameter TimeLimit to value 7186
Gurobi Optimizer version 9.5.2 build v9.5.2rc0 (win64)
Thread count: 10 physical cores, 20 logical processors, using up to 20 threads
Optimize a model with 40042 rows, 12121 columns and 133880 nonzeros
Model fingerprint: 0x6bbb6fa5
Variable types: 10345 continuous, 1776 integer (1776 binary)
Coefficient statistics:
  Matrix range     [5e-03, 8e+02]
  Objective range  [1e+00, 1e+00]
  Bounds range     [1e+03, 1e+03]
  RHS range        [1e+00, 1e+08]

MIP start from previous solve did not produce a new incumbent solution

Presolve removed 3910 rows and 1221 columns
Presolve time: 0.40s
Presolved: 36132 rows, 10900 columns, 119071 nonzeros
Variable types: 9637 continuous, 1263 integer (1260 binary)

Deterministic concurrent LP optimizer: primal and dual simplex (primal and dual model)
Showing first log only...

Root relaxation presolve removed 13 rows and 13 columns
Root relaxation presolved: 36119 rows, 10887 columns, 119045 nonzeros

Concurrent spin time: 0.08s

Solved with dual simplex (primal model)

Root relaxation: objective 2.400000e+04, 13262 iterations, 0.89 seconds (1.27 work units)

    Nodes    |    Current Node    |     Objective Bounds      |     Work
 Expl Unexpl |  Obj  Depth IntInf | Incumbent    BestBd   Gap | It/Node Time

     0     0 24000.0000    0   22          - 24000.0000      -     -    3s
H    0     0                    23498.611111 24000.0000  2.13%     -    3s

Explored 1 nodes (37387 simplex iterations) in 3.29 seconds (5.21 work units)
Thread count was 20 (of 20 available processors)

Solution count 1: 23498.6 

Optimal solution found (tolerance 5.00e-02)
Best objective 2.349861111111e+04, best bound 2.400000000000e+04, gap 2.1337%

User-callback calls 918, time in user-callback 0.00 sec
Set parameter TimeLimit to value 7182
Gurobi Optimizer version 9.5.2 build v9.5.2rc0 (win64)
Thread count: 10 physical cores, 20 logical processors, using up to 20 threads
Optimize a model with 43871 rows, 13201 columns and 146833 nonzeros
Model fingerprint: 0x74ddb887
Variable types: 11377 continuous, 1824 integer (1824 binary)
Coefficient statistics:
  Matrix range     [5e-03, 8e+02]
  Objective range  [1e+00, 1e+00]
  Bounds range     [1e+03, 1e+03]
  RHS range        [1e+00, 1e+08]

MIP start from previous solve did not produce a new incumbent solution

Presolve removed 4291 rows and 1339 columns
Presolve time: 0.44s
Presolved: 39580 rows, 11862 columns, 130522 nonzeros
Variable types: 10599 continuous, 1263 integer (1260 binary)

Deterministic concurrent LP optimizer: primal and dual simplex (primal and dual model)
Showing first log only...

Root relaxation presolve removed 15 rows and 15 columns
Root relaxation presolved: 39565 rows, 11847 columns, 130492 nonzeros

Concurrent spin time: 0.05s

Solved with dual simplex (primal model)

Root relaxation: objective 2.400000e+04, 15417 iterations, 1.01 seconds (1.10 work units)
Total elapsed time = 5.19s

    Nodes    |    Current Node    |     Objective Bounds      |     Work
 Expl Unexpl |  Obj  Depth IntInf | Incumbent    BestBd   Gap | It/Node Time

     0     0 24000.0000    0   24          - 24000.0000      -     -    5s
H    0     0                    23582.222222 24000.0000  1.77%     -    5s

Explored 1 nodes (49140 simplex iterations) in 5.57 seconds (9.94 work units)
Thread count was 20 (of 20 available processors)

Solution count 1: 23582.2 

Optimal solution found (tolerance 5.00e-02)
Best objective 2.358222222222e+04, best bound 2.400000000000e+04, gap 1.7716%

User-callback calls 990, time in user-callback 0.00 sec
Set parameter TimeLimit to value 7176
Gurobi Optimizer version 9.5.2 build v9.5.2rc0 (win64)
Thread count: 10 physical cores, 20 logical processors, using up to 20 threads
Optimize a model with 47700 rows, 14281 columns and 159786 nonzeros
Model fingerprint: 0xf51e9d37
Variable types: 12409 continuous, 1872 integer (1872 binary)
Coefficient statistics:
  Matrix range     [5e-03, 8e+02]
  Objective range  [1e+00, 1e+00]
  Bounds range     [1e+03, 1e+03]
  RHS range        [1e+00, 1e+08]

MIP start from previous solve did not produce a new incumbent solution

Presolve removed 4674 rows and 1459 columns
Presolve time: 0.48s
Presolved: 43026 rows, 12822 columns, 141957 nonzeros
Variable types: 11559 continuous, 1263 integer (1260 binary)

Deterministic concurrent LP optimizer: primal and dual simplex (primal and dual model)
Showing first log only...

Root relaxation presolve removed 15 rows and 15 columns
Root relaxation presolved: 43011 rows, 12807 columns, 141927 nonzeros

Concurrent spin time: 0.09s

Solved with dual simplex (primal model)

Root relaxation: objective 2.400000e+04, 18109 iterations, 1.42 seconds (2.25 work units)

    Nodes    |    Current Node    |     Objective Bounds      |     Work
 Expl Unexpl |  Obj  Depth IntInf | Incumbent    BestBd   Gap | It/Node Time

     0     0 24000.0000    0   48          - 24000.0000      -     -    4s
H    0     0                    23222.222222 24000.0000  3.35%     -    4s

Explored 1 nodes (45800 simplex iterations) in 4.91 seconds (8.96 work units)
Thread count was 20 (of 20 available processors)

Solution count 1: 23222.2 

Optimal solution found (tolerance 5.00e-02)
Best objective 2.322222222222e+04, best bound 2.400000000000e+04, gap 3.3493%

User-callback calls 1146, time in user-callback 0.00 sec
Set parameter TimeLimit to value 7171
Gurobi Optimizer version 9.5.2 build v9.5.2rc0 (win64)
Thread count: 10 physical cores, 20 logical processors, using up to 20 threads
Optimize a model with 51529 rows, 15361 columns and 172739 nonzeros
Model fingerprint: 0xc709c255
Variable types: 13441 continuous, 1920 integer (1920 binary)
Coefficient statistics:
  Matrix range     [5e-03, 8e+02]
  Objective range  [1e+00, 1e+00]
  Bounds range     [1e+03, 1e+03]
  RHS range        [1e+00, 1e+08]

MIP start from previous solve did not produce a new incumbent solution

Presolve removed 5053 rows and 1575 columns
Presolve time: 0.52s
Presolved: 46476 rows, 13786 columns, 153411 nonzeros
Variable types: 12523 continuous, 1263 integer (1260 binary)

Deterministic concurrent LP optimizer: primal and dual simplex (primal and dual model)
Showing first log only...

Root relaxation presolve removed 19 rows and 19 columns
Root relaxation presolved: 46457 rows, 13767 columns, 153373 nonzeros

Concurrent spin time: 0.07s

Solved with dual simplex (primal model)

Root relaxation: objective 2.400000e+04, 19049 iterations, 1.60 seconds (2.68 work units)
Total elapsed time = 6.47s

    Nodes    |    Current Node    |     Objective Bounds      |     Work
 Expl Unexpl |  Obj  Depth IntInf | Incumbent    BestBd   Gap | It/Node Time

     0     0 24000.0000    0   56          - 24000.0000      -     -    8s
H    0     0                    22504.069444 24000.0000  6.65%     -    8s
H    0     0                    22578.189444 24000.0000  6.30%     -    8s
H    0     0                    22848.800000 24000.0000  5.04%     -    8s
H    0     0                    23241.111111 24000.0000  3.27%     -    9s
     0     0 24000.0000    0   95 23241.1111 24000.0000  3.27%     -    9s

Cutting planes:
  Gomory: 12
  Implied bound: 2
  MIR: 107
  Flow cover: 178
  RLT: 20
  Relax-and-lift: 19

Explored 1 nodes (64126 simplex iterations) in 9.20 seconds (19.08 work units)
Thread count was 20 (of 20 available processors)

Solution count 4: 23241.1 22848.8 22578.2 22504.1 

Optimal solution found (tolerance 5.00e-02)
Best objective 2.324111111111e+04, best bound 2.400000000000e+04, gap 3.2653%

User-callback calls 1421, time in user-callback 0.00 sec
Set parameter TimeLimit to value 7161
Gurobi Optimizer version 9.5.2 build v9.5.2rc0 (win64)
Thread count: 10 physical cores, 20 logical processors, using up to 20 threads
Optimize a model with 55358 rows, 16441 columns and 185692 nonzeros
Model fingerprint: 0x1053af9f
Variable types: 14473 continuous, 1968 integer (1968 binary)
Coefficient statistics:
  Matrix range     [5e-03, 8e+02]
  Objective range  [1e+00, 1e+00]
  Bounds range     [1e+03, 1e+03]
  RHS range        [1e+00, 1e+08]

MIP start from previous solve produced solution with objective 22291.1 (0.09s)
Loaded MIP start from previous solve with objective 22291.1

Presolve removed 5437 rows and 1696 columns
Presolve time: 0.56s
Presolved: 49921 rows, 14745 columns, 164855 nonzeros
Variable types: 13482 continuous, 1263 integer (1260 binary)

Deterministic concurrent LP optimizer: primal and dual simplex (primal and dual model)
Showing first log only...

Root relaxation presolve removed 18 rows and 18 columns
Root relaxation presolved: 49903 rows, 14727 columns, 164819 nonzeros

Concurrent spin time: 0.02s

Solved with dual simplex (primal model)

Root relaxation: objective 2.400000e+04, 20903 iterations, 1.55 seconds (2.65 work units)
Total elapsed time = 8.59s
Total elapsed time = 10.13s

    Nodes    |    Current Node    |     Objective Bounds      |     Work
 Expl Unexpl |  Obj  Depth IntInf | Incumbent    BestBd   Gap | It/Node Time

     0     0 24000.0000    0   50 22291.1111 24000.0000  7.67%     -   10s
H    0     0                    22937.622222 24000.0000  4.63%     -   10s

Explored 1 nodes (72580 simplex iterations) in 10.87 seconds (24.60 work units)
Thread count was 20 (of 20 available processors)

Solution count 2: 22937.6 22291.1 

Optimal solution found (tolerance 5.00e-02)
Best objective 2.293762222222e+04, best bound 2.400000000000e+04, gap 4.6316%

User-callback calls 1279, time in user-callback 0.00 sec
Set parameter TimeLimit to value 7150
Gurobi Optimizer version 9.5.2 build v9.5.2rc0 (win64)
Thread count: 10 physical cores, 20 logical processors, using up to 20 threads
Optimize a model with 59187 rows, 17521 columns and 198645 nonzeros
Model fingerprint: 0x893e46ec
Variable types: 15505 continuous, 2016 integer (2016 binary)
Coefficient statistics:
  Matrix range     [5e-03, 8e+02]
  Objective range  [1e+00, 1e+00]
  Bounds range     [1e+03, 1e+03]
  RHS range        [1e+00, 1e+08]

MIP start from previous solve produced solution with objective 20657.6 (0.09s)
Loaded MIP start from previous solve with objective 20657.6

Presolve removed 5817 rows and 1813 columns
Presolve time: 0.60s
Presolved: 53370 rows, 15708 columns, 176307 nonzeros
Variable types: 14445 continuous, 1263 integer (1260 binary)

Deterministic concurrent LP optimizer: primal and dual simplex (primal and dual model)
Showing first log only...

Root relaxation presolve removed 21 rows and 21 columns
Root relaxation presolved: 53349 rows, 15687 columns, 176265 nonzeros

Concurrent spin time: 0.09s

Solved with dual simplex (primal model)

Root relaxation: objective 2.400000e+04, 26363 iterations, 2.93 seconds (6.33 work units)
Total elapsed time = 7.76s
Total elapsed time = 10.22s

    Nodes    |    Current Node    |     Objective Bounds      |     Work
 Expl Unexpl |  Obj  Depth IntInf | Incumbent    BestBd   Gap | It/Node Time

     0     0 24000.0000    0   81 20657.6222 24000.0000  16.2%     -   12s
H    0     0                    22615.092593 24000.0000  6.12%     -   12s
H    0     0                    22801.759259 24000.0000  5.26%     -   12s
H    0     0                    23021.411111 24000.0000  4.25%     -   13s
     0     0 24000.0000    0  166 23021.4111 24000.0000  4.25%     -   13s

Cutting planes:
  Gomory: 23
  MIR: 143
  Flow cover: 188
  RLT: 5
  Relax-and-lift: 16

Explored 1 nodes (78071 simplex iterations) in 13.65 seconds (31.29 work units)
Thread count was 20 (of 20 available processors)

Solution count 4: 23021.4 22801.8 22615.1 20657.6 

Optimal solution found (tolerance 5.00e-02)
Best objective 2.302141111111e+04, best bound 2.400000000000e+04, gap 4.2508%

User-callback calls 2017, time in user-callback 0.00 sec
Set parameter TimeLimit to value 7136
Gurobi Optimizer version 9.5.2 build v9.5.2rc0 (win64)
Thread count: 10 physical cores, 20 logical processors, using up to 20 threads
Optimize a model with 63016 rows, 18601 columns and 211598 nonzeros
Model fingerprint: 0xf7b3547f
Variable types: 16537 continuous, 2064 integer (2064 binary)
Coefficient statistics:
  Matrix range     [5e-03, 8e+02]
  Objective range  [1e+00, 1e+00]
  Bounds range     [1e+03, 1e+03]
  RHS range        [1e+00, 1e+08]

MIP start from previous solve produced solution with objective 22291.3 (0.10s)
Loaded MIP start from previous solve with objective 22291.3

Presolve removed 6199 rows and 1932 columns
Presolve time: 0.65s
Presolved: 56817 rows, 16669 columns, 187755 nonzeros
Variable types: 15406 continuous, 1263 integer (1260 binary)

Deterministic concurrent LP optimizer: primal and dual simplex (primal and dual model)
Showing first log only...

Root relaxation presolve removed 22 rows and 22 columns
Root relaxation presolved: 56795 rows, 16647 columns, 187711 nonzeros

Concurrent spin time: 0.14s

Solved with dual simplex (primal model)

Root relaxation: objective 2.400000e+04, 28406 iterations, 3.52 seconds (7.84 work units)
Total elapsed time = 9.30s
Total elapsed time = 11.09s

    Nodes    |    Current Node    |     Objective Bounds      |     Work
 Expl Unexpl |  Obj  Depth IntInf | Incumbent    BestBd   Gap | It/Node Time

     0     0 24000.0000    0   59 22291.2925 24000.0000  7.67%     -   13s
H    0     0                    23327.222222 24000.0000  2.88%     -   13s

Explored 1 nodes (75123 simplex iterations) in 13.24 seconds (30.31 work units)
Thread count was 20 (of 20 available processors)

Solution count 2: 23327.2 22291.3 

Optimal solution found (tolerance 5.00e-02)
Best objective 2.332722222222e+04, best bound 2.400000000000e+04, gap 2.8841%

User-callback calls 2130, time in user-callback 0.00 sec
Set parameter TimeLimit to value 7122
Gurobi Optimizer version 9.5.2 build v9.5.2rc0 (win64)
Thread count: 10 physical cores, 20 logical processors, using up to 20 threads
Optimize a model with 66845 rows, 19681 columns and 224551 nonzeros
Model fingerprint: 0x328943b7
Variable types: 17569 continuous, 2112 integer (2112 binary)
Coefficient statistics:
  Matrix range     [5e-03, 8e+02]
  Objective range  [1e+00, 1e+00]
  Bounds range     [1e+03, 1e+03]
  RHS range        [1e+00, 1e+08]

MIP start from previous solve produced solution with objective 22677.2 (0.10s)
Loaded MIP start from previous solve with objective 22677.2

Presolve removed 6585 rows and 2055 columns
Presolve time: 0.68s
Presolved: 60260 rows, 17626 columns, 199195 nonzeros
Variable types: 16363 continuous, 1263 integer (1260 binary)

Deterministic concurrent LP optimizer: primal and dual simplex (primal and dual model)
Showing first log only...

Root relaxation presolve removed 19 rows and 19 columns
Root relaxation presolved: 60241 rows, 17607 columns, 199157 nonzeros


Root simplex log...

Iteration    Objective       Primal Inf.    Dual Inf.      Time
   29205    1.8395295e+04   0.000000e+00   2.347159e+05      5s
Concurrent spin time: 0.10s

Solved with dual simplex (primal model)

Root relaxation: objective 2.400000e+04, 31088 iterations, 4.57 seconds (11.38 work units)
Total elapsed time = 11.09s

    Nodes    |    Current Node    |     Objective Bounds      |     Work
 Expl Unexpl |  Obj  Depth IntInf | Incumbent    BestBd   Gap | It/Node Time

     0     0 24000.0000    0  129 22677.2222 24000.0000  5.83%     -   13s
H    0     0                    23146.784787 24000.0000  3.69%     -   13s

Explored 1 nodes (73132 simplex iterations) in 13.32 seconds (33.23 work units)
Thread count was 20 (of 20 available processors)

Solution count 2: 23146.8 22677.2 

Optimal solution found (tolerance 5.00e-02)
Best objective 2.314678478720e+04, best bound 2.400000000000e+04, gap 3.6861%

User-callback calls 2597, time in user-callback 0.00 sec
Set parameter TimeLimit to value 7109
Gurobi Optimizer version 9.5.2 build v9.5.2rc0 (win64)
Thread count: 10 physical cores, 20 logical processors, using up to 20 threads
Optimize a model with 70674 rows, 20761 columns and 237504 nonzeros
Model fingerprint: 0x020f92c4
Variable types: 18601 continuous, 2160 integer (2160 binary)
Coefficient statistics:
  Matrix range     [5e-03, 8e+02]
  Objective range  [1e+00, 1e+00]
  Bounds range     [1e+03, 1e+03]
  RHS range        [1e+00, 1e+08]

MIP start from previous solve produced solution with objective 22646.8 (0.11s)
Loaded MIP start from previous solve with objective 22646.8

Presolve removed 6961 rows and 2168 columns
Presolve time: 0.73s
Presolved: 63713 rows, 18593 columns, 210619 nonzeros
Variable types: 17330 continuous, 1263 integer (1260 binary)

Deterministic concurrent LP optimizer: primal and dual simplex (primal and dual model)
Showing first log only...

Root relaxation presolve removed 26 rows and 26 columns
Root relaxation presolved: 63687 rows, 18567 columns, 210567 nonzeros

Concurrent spin time: 0.00s

Solved with dual simplex (primal model)

Root relaxation: objective 2.400000e+04, 30015 iterations, 4.03 seconds (9.84 work units)
Total elapsed time = 10.60s

    Nodes    |    Current Node    |     Objective Bounds      |     Work
 Expl Unexpl |  Obj  Depth IntInf | Incumbent    BestBd   Gap | It/Node Time

     0     0 24000.0000    0  215 22646.7848 24000.0000  5.98%     -   13s
H    0     0                    22769.508004 23999.6255  5.40%     -   21s
     0     0 23976.0852    0  349 22769.5080 23976.0852  5.30%     -   21s
H    0     0                    22981.361111 23976.0852  4.33%     -   25s
     0     0 23976.0852    0  332 22981.3611 23976.0852  4.33%     -   25s

Cutting planes:
  Gomory: 2
  Implied bound: 1
  MIR: 124
  Flow cover: 181
  RLT: 27
  Relax-and-lift: 93

Explored 1 nodes (98086 simplex iterations) in 25.47 seconds (58.08 work units)
Thread count was 20 (of 20 available processors)

Solution count 3: 22981.4 22769.5 22646.8 

Optimal solution found (tolerance 5.00e-02)
Best objective 2.298136111111e+04, best bound 2.397608523541e+04, gap 4.3284%

User-callback calls 2960, time in user-callback 0.00 sec
Set parameter TimeLimit to value 7083
Gurobi Optimizer version 9.5.2 build v9.5.2rc0 (win64)
Thread count: 10 physical cores, 20 logical processors, using up to 20 threads
Optimize a model with 74503 rows, 21841 columns and 250457 nonzeros
Model fingerprint: 0xf9fffaa7
Variable types: 19633 continuous, 2208 integer (2208 binary)
Coefficient statistics:
  Matrix range     [5e-03, 8e+02]
  Objective range  [1e+00, 1e+00]
  Bounds range     [1e+03, 1e+03]
  RHS range        [1e+00, 1e+08]

MIP start from previous solve produced solution with objective 22101.4 (0.13s)
Loaded MIP start from previous solve with objective 22101.4

Presolve removed 7344 rows and 2288 columns
Presolve time: 0.75s
Presolved: 67159 rows, 19553 columns, 222063 nonzeros
Variable types: 18290 continuous, 1263 integer (1260 binary)

Deterministic concurrent LP optimizer: primal and dual simplex (primal and dual model)
Showing first log only...

Root relaxation presolve removed 26 rows and 26 columns
Root relaxation presolved: 67133 rows, 19527 columns, 222011 nonzeros

Concurrent spin time: 0.01s

Solved with dual simplex (primal model)

Root relaxation: objective 2.396203e+04, 29252 iterations, 3.55 seconds (7.92 work units)
Total elapsed time = 9.87s
Total elapsed time = 13.94s
Total elapsed time = 15.92s

    Nodes    |    Current Node    |     Objective Bounds      |     Work
 Expl Unexpl |  Obj  Depth IntInf | Incumbent    BestBd   Gap | It/Node Time

     0     0 23962.0343    0  220 22101.3611 23962.0343  8.42%     -   16s
     0     0 23909.1223    0  370 22101.3611 23909.1223  8.18%     -   22s
H    0     0                    22777.012270 23909.1223  4.97%     -   23s
     0     0 23907.8511    0  357 22777.0123 23907.8511  4.96%     -   23s

Cutting planes:
  Gomory: 5
  Implied bound: 4
  MIR: 102
  Flow cover: 132
  RLT: 31
  Relax-and-lift: 103

Explored 1 nodes (98484 simplex iterations) in 23.17 seconds (55.65 work units)
Thread count was 20 (of 20 available processors)

Solution count 2: 22777 22101.4 

Optimal solution found (tolerance 5.00e-02)
Best objective 2.277701226975e+04, best bound 2.390785108039e+04, gap 4.9648%

User-callback calls 2595, time in user-callback 0.00 sec
Set parameter TimeLimit to value 7059
Gurobi Optimizer version 9.5.2 build v9.5.2rc0 (win64)
Thread count: 10 physical cores, 20 logical processors, using up to 20 threads
Optimize a model with 78332 rows, 22921 columns and 263410 nonzeros
Model fingerprint: 0x83d0c513
Variable types: 20665 continuous, 2256 integer (2256 binary)
Coefficient statistics:
  Matrix range     [5e-03, 8e+02]
  Objective range  [1e+00, 1e+00]
  Bounds range     [1e+03, 1e+03]
  RHS range        [1e+00, 1e+08]

MIP start from previous solve produced solution with objective 22027 (0.12s)
Loaded MIP start from previous solve with objective 22027

Presolve removed 7728 rows and 2409 columns
Presolve time: 0.83s
Presolved: 70604 rows, 20512 columns, 233505 nonzeros
Variable types: 19249 continuous, 1263 integer (1260 binary)

Deterministic concurrent LP optimizer: primal and dual simplex (primal and dual model)
Showing first log only...

Root relaxation presolve removed 25 rows and 25 columns
Root relaxation presolved: 70579 rows, 20487 columns, 233455 nonzeros


Root simplex log...

Iteration    Objective       Primal Inf.    Dual Inf.      Time
   34359    1.7505660e+04   0.000000e+00   6.486560e+05      5s
Concurrent spin time: 0.10s

Solved with dual simplex (primal model)

Root relaxation: objective 2.395383e+04, 31106 iterations, 4.82 seconds (11.64 work units)
Total elapsed time = 12.54s
Total elapsed time = 17.67s
Total elapsed time = 20.15s

    Nodes    |    Current Node    |     Objective Bounds      |     Work
 Expl Unexpl |  Obj  Depth IntInf | Incumbent    BestBd   Gap | It/Node Time

     0     0 23953.8253    0  262 22027.0123 23953.8253  8.75%     -   21s
     0     0 23861.9685    0  393 22027.0123 23861.9685  8.33%     -   25s
     0     0 23829.9248    0  337 22027.0123 23829.9248  8.19%     -   26s
H    0     0                    22490.189109 23829.9248  5.96%     -   30s
     0     0 23799.8752    0  447 22490.1891 23799.8752  5.82%     -   30s
     0     0 23799.8752    0  424 22490.1891 23799.8752  5.82%     -   30s
     0     0 23799.8752    0  419 22490.1891 23799.8752  5.82%     -   31s
     0     0 23799.8752    0  392 22490.1891 23799.8752  5.82%     -   31s
     0     0 23799.8752    0  377 22490.1891 23799.8752  5.82%     -   31s
     0     0 23799.8752    0  377 22490.1891 23799.8752  5.82%     -   32s
     0     0 23799.8752    0  377 22490.1891 23799.8752  5.82%     -   32s
     0     0 23799.8752    0  377 22490.1891 23799.8752  5.82%     -   32s
H    0     0                    22696.898194 23799.8752  4.86%     -   34s
H    0     0                    22948.162393 23799.8752  3.71%     -   34s
     0     0 23799.8752    0  354 22948.1624 23799.8752  3.71%     -   34s
